c preprocessed version of queen5_5, 25 vertices, 160 edges
p td 25 160
0 6
0 12
0 18
0 24
0 1
0 2
0 3
0 4
0 5
0 10
0 15
0 20
1 7
1 13
1 19
1 5
1 2
1 3
1 4
1 6
1 11
1 16
1 21
2 8
2 14
2 6
2 10
2 3
2 4
2 7
2 12
2 17
2 22
3 9
3 7
3 11
3 15
3 4
3 8
3 13
3 18
3 23
4 8
4 12
4 16
4 20
4 9
4 14
4 19
4 24
5 11
5 17
5 23
5 6
5 7
5 8
5 9
5 10
5 15
5 20
6 12
6 18
6 24
6 10
6 7
6 8
6 9
6 11
6 16
6 21
7 13
7 19
7 11
7 15
7 8
7 9
7 12
7 17
7 22
8 14
8 12
8 16
8 20
8 9
8 13
8 18
8 23
9 13
9 17
9 21
9 14
9 19
9 24
10 16
10 22
10 11
10 12
10 13
10 14
10 15
10 20
11 17
11 23
11 15
11 12
11 13
11 14
11 16
11 21
12 18
12 24
12 16
12 20
12 13
12 14
12 17
12 22
13 19
13 17
13 21
13 14
13 18
13 23
14 18
14 22
14 19
14 24
15 21
15 16
15 17
15 18
15 19
15 20
16 22
16 20
16 17
16 18
16 19
16 21
17 23
17 21
17 18
17 19
17 22
18 24
18 22
18 19
18 23
19 23
19 24
20 21
20 22
20 23
20 24
21 22
21 23
21 24
22 23
22 24
23 24
